(declare-fun var0 () String)
(assert (str.in.re var0 (re.++ (re.+ (re.* (str.to.re "II"))) (re.++ (re.+ (re.+ (str.to.re "HHH"))) (re.++ (re.+ (re.* (str.to.re "GGG"))) (re.++ (re.+ (re.+ (str.to.re "F"))) (re.++ (re.+ (re.* (str.to.re "E"))) (re.++ (re.* (re.* (str.to.re "D"))) (re.++ (re.union (re.* (str.to.re "B")) (re.+ (str.to.re "C"))) (re.++ (re.+ (re.union (str.to.re "zz") (str.to.re "AAA"))) (re.++ (re.+ (re.+ (str.to.re "y"))) (re.++ (re.union (re.+ (str.to.re "ww")) (re.+ (str.to.re "xxx"))) (re.++ (re.+ (re.* (str.to.re "vv"))) (re.++ (re.union (re.union (str.to.re "ss") (str.to.re "tt")) (re.+ (str.to.re "uu"))) (re.++ (re.+ (re.union (str.to.re "q") (str.to.re "r"))) (re.++ (re.+ (re.union (str.to.re "oo") (str.to.re "p"))) (re.++ (re.+ (re.+ (str.to.re "n"))) (re.++ (re.+ (re.* (str.to.re "m"))) (re.++ (re.+ (re.* (str.to.re "ll"))) (re.++ (re.+ (re.union (str.to.re "j") (str.to.re "k"))) (re.++ (re.* (re.+ (str.to.re "iii"))) (re.++ (re.* (re.union (str.to.re "g") (str.to.re "hhh"))) (re.++ (re.+ (re.+ (str.to.re "ff"))) (re.++ (re.+ (re.+ (str.to.re "eee"))) (re.++ (re.union (re.* (str.to.re "ccc")) (re.* (str.to.re "ddd"))) (re.++ (re.+ (re.union (str.to.re "a") (str.to.re "b"))) (re.++ (re.union (re.+ (str.to.re "88")) (re.+ (str.to.re "99"))) (re.++ (re.union (re.+ (str.to.re "666")) (re.* (str.to.re "77"))) (re.++ (re.union (re.+ (str.to.re "33")) (re.union (str.to.re "44") (str.to.re "555"))) (re.++ (re.* (re.* (str.to.re "222"))) (re.union (re.+ (str.to.re "0")) (re.+ (str.to.re "11")))))))))))))))))))))))))))))))))
(check-sat)